(set-option :produce-models true)
(set-logic QF_LRA)
(set-info :notes | Strip-packing problem.|)
(declare-fun x0 () Real)
(declare-fun y0 () Real)
(declare-fun x1 () Real)
(declare-fun y1 () Real)
(declare-fun x2 () Real)
(declare-fun y2 () Real)
(declare-fun x3 () Real)
(declare-fun y3 () Real)
(declare-fun x4 () Real)
(declare-fun y4 () Real)
(declare-fun x5 () Real)
(declare-fun y5 () Real)
(declare-fun x6 () Real)
(declare-fun y6 () Real)
(declare-fun x7 () Real)
(declare-fun y7 () Real)
(declare-fun x8 () Real)
(declare-fun y8 () Real)
(declare-fun x9 () Real)
(declare-fun y9 () Real)
(declare-fun x10 () Real)
(declare-fun y10 () Real)
(declare-fun x11 () Real)
(declare-fun y11 () Real)
(declare-fun z () Real)
(declare-fun c () Real)
(assert (and (= c z) (and (>= x0 0) 
(and (>= y0 0) 
(and (>= x1 0) 
(and (>= y1 0) 
(and (>= x2 0) 
(and (>= y2 0) 
(and (>= x3 0) 
(and (>= y3 0) 
(and (>= x4 0) 
(and (>= y4 0) 
(and (>= x5 0) 
(and (>= y5 0) 
(and (>= x6 0) 
(and (>= y6 0) 
(and (>= x7 0) 
(and (>= y7 0) 
(and (>= x8 0) 
(and (>= y8 0) 
(and (>= x9 0) 
(and (>= y9 0) 
(and (>= x10 0) 
(and (>= y10 0) 
(and (>= x11 0) 
(and (>= y11 0) 
(and (>= z 0) 
(and (>= c 0) 
(and (<= (+ x0 0.1855218546) z) 
(and (<= 0.9039770566 y0) 
(and (<= y0 1.0) 
(and (<= x0 (- 3.687508176 0.1855218546)) 
(and (>= x0 0) 
(and (<= (+ x1 0.9658536713) z) 
(and (<= 0.8527088323 y1) 
(and (<= y1 1.0) 
(and (<= x1 (- 3.687508176 0.9658536713)) 
(and (>= x1 0) 
(and (<= (+ x2 0.1586626009) z) 
(and (<= 0.8252891989 y2) 
(and (<= y2 1.0) 
(and (<= x2 (- 3.687508176 0.1586626009)) 
(and (>= x2 0) 
(and (<= (+ x3 0.1659998602) z) 
(and (<= 0.76438492 y3) 
(and (<= y3 1.0) 
(and (<= x3 (- 3.687508176 0.1659998602)) 
(and (>= x3 0) 
(and (<= (+ x4 0.0222888244) z) 
(and (<= 0.5933566488 y4) 
(and (<= y4 1.0) 
(and (<= x4 (- 3.687508176 0.0222888244)) 
(and (>= x4 0) 
(and (<= (+ x5 0.8253510345) z) 
(and (<= 0.5755878438 y5) 
(and (<= y5 1.0) 
(and (<= x5 (- 3.687508176 0.8253510345)) 
(and (>= x5 0) 
(and (<= (+ x6 0.7426599805) z) 
(and (<= 0.5725162037 y6) 
(and (<= y6 1.0) 
(and (<= x6 (- 3.687508176 0.7426599805)) 
(and (>= x6 0) 
(and (<= (+ x7 0.6211703496) z) 
(and (<= 0.454072304 y7) 
(and (<= y7 1.0) 
(and (<= x7 (- 3.687508176 0.6211703496)) 
(and (>= x7 0) 
(and (<= (+ x8 0.8113019249) z) 
(and (<= 0.3034125159 y8) 
(and (<= y8 1.0) 
(and (<= x8 (- 3.687508176 0.8113019249)) 
(and (>= x8 0) 
(and (<= (+ x9 0.0756056855) z) 
(and (<= 0.2695778767 y9) 
(and (<= y9 1.0) 
(and (<= x9 (- 3.687508176 0.0756056855)) 
(and (>= x9 0) 
(and (<= (+ x10 0.3485524625) z) 
(and (<= 0.2278110261 y10) 
(and (<= y10 1.0) 
(and (<= x10 (- 3.687508176 0.3485524625)) 
(and (>= x10 0) 
(and (<= (+ x11 0.2459740716) z) 
(and (<= 0.1409893754 y11) 
(and (<= y11 1.0) 
(and (<= x11 (- 3.687508176 0.2459740716)) 
(and (>= x11 0) 
(and (<= c 3.687508176) 
(and (or (<= (+ x0 0.1855218546) x1) (or (<= (+ x1 0.9658536713) x0) (or (>= (- y0 0.9039770566) y1) (or (>= (- y1 0.8527088323) y0))))) 
(and (or (<= (+ x0 0.1855218546) x2) (or (<= (+ x2 0.1586626009) x0) (or (>= (- y0 0.9039770566) y2) (or (>= (- y2 0.8252891989) y0))))) 
(and (or (<= (+ x0 0.1855218546) x3) (or (<= (+ x3 0.1659998602) x0) (or (>= (- y0 0.9039770566) y3) (or (>= (- y3 0.76438492) y0))))) 
(and (or (<= (+ x0 0.1855218546) x4) (or (<= (+ x4 0.0222888244) x0) (or (>= (- y0 0.9039770566) y4) (or (>= (- y4 0.5933566488) y0))))) 
(and (or (<= (+ x0 0.1855218546) x5) (or (<= (+ x5 0.8253510345) x0) (or (>= (- y0 0.9039770566) y5) (or (>= (- y5 0.5755878438) y0))))) 
(and (or (<= (+ x0 0.1855218546) x6) (or (<= (+ x6 0.7426599805) x0) (or (>= (- y0 0.9039770566) y6) (or (>= (- y6 0.5725162037) y0))))) 
(and (or (<= (+ x0 0.1855218546) x7) (or (<= (+ x7 0.6211703496) x0) (or (>= (- y0 0.9039770566) y7) (or (>= (- y7 0.454072304) y0))))) 
(and (or (<= (+ x0 0.1855218546) x8) (or (<= (+ x8 0.8113019249) x0) (or (>= (- y0 0.9039770566) y8) (or (>= (- y8 0.3034125159) y0))))) 
(and (or (<= (+ x0 0.1855218546) x9) (or (<= (+ x9 0.0756056855) x0) (or (>= (- y0 0.9039770566) y9) (or (>= (- y9 0.2695778767) y0))))) 
(and (or (<= (+ x0 0.1855218546) x10) (or (<= (+ x10 0.3485524625) x0) (or (>= (- y0 0.9039770566) y10) (or (>= (- y10 0.2278110261) y0))))) 
(and (or (<= (+ x0 0.1855218546) x11) (or (<= (+ x11 0.2459740716) x0) (or (>= (- y0 0.9039770566) y11) (or (>= (- y11 0.1409893754) y0))))) 
(and (or (<= (+ x1 0.9658536713) x2) (or (<= (+ x2 0.1586626009) x1) (or (>= (- y1 0.8527088323) y2) (or (>= (- y2 0.8252891989) y1))))) 
(and (or (<= (+ x1 0.9658536713) x3) (or (<= (+ x3 0.1659998602) x1) (or (>= (- y1 0.8527088323) y3) (or (>= (- y3 0.76438492) y1))))) 
(and (or (<= (+ x1 0.9658536713) x4) (or (<= (+ x4 0.0222888244) x1) (or (>= (- y1 0.8527088323) y4) (or (>= (- y4 0.5933566488) y1))))) 
(and (or (<= (+ x1 0.9658536713) x5) (or (<= (+ x5 0.8253510345) x1) (or (>= (- y1 0.8527088323) y5) (or (>= (- y5 0.5755878438) y1))))) 
(and (or (<= (+ x1 0.9658536713) x6) (or (<= (+ x6 0.7426599805) x1) (or (>= (- y1 0.8527088323) y6) (or (>= (- y6 0.5725162037) y1))))) 
(and (or (<= (+ x1 0.9658536713) x7) (or (<= (+ x7 0.6211703496) x1) (or (>= (- y1 0.8527088323) y7) (or (>= (- y7 0.454072304) y1))))) 
(and (or (<= (+ x1 0.9658536713) x8) (or (<= (+ x8 0.8113019249) x1) (or (>= (- y1 0.8527088323) y8) (or (>= (- y8 0.3034125159) y1))))) 
(and (or (<= (+ x1 0.9658536713) x9) (or (<= (+ x9 0.0756056855) x1) (or (>= (- y1 0.8527088323) y9) (or (>= (- y9 0.2695778767) y1))))) 
(and (or (<= (+ x1 0.9658536713) x10) (or (<= (+ x10 0.3485524625) x1) (or (>= (- y1 0.8527088323) y10) (or (>= (- y10 0.2278110261) y1))))) 
(and (or (<= (+ x1 0.9658536713) x11) (or (<= (+ x11 0.2459740716) x1) (or (>= (- y1 0.8527088323) y11) (or (>= (- y11 0.1409893754) y1))))) 
(and (or (<= (+ x2 0.1586626009) x3) (or (<= (+ x3 0.1659998602) x2) (or (>= (- y2 0.8252891989) y3) (or (>= (- y3 0.76438492) y2))))) 
(and (or (<= (+ x2 0.1586626009) x4) (or (<= (+ x4 0.0222888244) x2) (or (>= (- y2 0.8252891989) y4) (or (>= (- y4 0.5933566488) y2))))) 
(and (or (<= (+ x2 0.1586626009) x5) (or (<= (+ x5 0.8253510345) x2) (or (>= (- y2 0.8252891989) y5) (or (>= (- y5 0.5755878438) y2))))) 
(and (or (<= (+ x2 0.1586626009) x6) (or (<= (+ x6 0.7426599805) x2) (or (>= (- y2 0.8252891989) y6) (or (>= (- y6 0.5725162037) y2))))) 
(and (or (<= (+ x2 0.1586626009) x7) (or (<= (+ x7 0.6211703496) x2) (or (>= (- y2 0.8252891989) y7) (or (>= (- y7 0.454072304) y2))))) 
(and (or (<= (+ x2 0.1586626009) x8) (or (<= (+ x8 0.8113019249) x2) (or (>= (- y2 0.8252891989) y8) (or (>= (- y8 0.3034125159) y2))))) 
(and (or (<= (+ x2 0.1586626009) x9) (or (<= (+ x9 0.0756056855) x2) (or (>= (- y2 0.8252891989) y9) (or (>= (- y9 0.2695778767) y2))))) 
(and (or (<= (+ x2 0.1586626009) x10) (or (<= (+ x10 0.3485524625) x2) (or (>= (- y2 0.8252891989) y10) (or (>= (- y10 0.2278110261) y2))))) 
(and (or (<= (+ x2 0.1586626009) x11) (or (<= (+ x11 0.2459740716) x2) (or (>= (- y2 0.8252891989) y11) (or (>= (- y11 0.1409893754) y2))))) 
(and (or (<= (+ x3 0.1659998602) x4) (or (<= (+ x4 0.0222888244) x3) (or (>= (- y3 0.76438492) y4) (or (>= (- y4 0.5933566488) y3))))) 
(and (or (<= (+ x3 0.1659998602) x5) (or (<= (+ x5 0.8253510345) x3) (or (>= (- y3 0.76438492) y5) (or (>= (- y5 0.5755878438) y3))))) 
(and (or (<= (+ x3 0.1659998602) x6) (or (<= (+ x6 0.7426599805) x3) (or (>= (- y3 0.76438492) y6) (or (>= (- y6 0.5725162037) y3))))) 
(and (or (<= (+ x3 0.1659998602) x7) (or (<= (+ x7 0.6211703496) x3) (or (>= (- y3 0.76438492) y7) (or (>= (- y7 0.454072304) y3))))) 
(and (or (<= (+ x3 0.1659998602) x8) (or (<= (+ x8 0.8113019249) x3) (or (>= (- y3 0.76438492) y8) (or (>= (- y8 0.3034125159) y3))))) 
(and (or (<= (+ x3 0.1659998602) x9) (or (<= (+ x9 0.0756056855) x3) (or (>= (- y3 0.76438492) y9) (or (>= (- y9 0.2695778767) y3))))) 
(and (or (<= (+ x3 0.1659998602) x10) (or (<= (+ x10 0.3485524625) x3) (or (>= (- y3 0.76438492) y10) (or (>= (- y10 0.2278110261) y3))))) 
(and (or (<= (+ x3 0.1659998602) x11) (or (<= (+ x11 0.2459740716) x3) (or (>= (- y3 0.76438492) y11) (or (>= (- y11 0.1409893754) y3))))) 
(and (or (<= (+ x4 0.0222888244) x5) (or (<= (+ x5 0.8253510345) x4) (or (>= (- y4 0.5933566488) y5) (or (>= (- y5 0.5755878438) y4))))) 
(and (or (<= (+ x4 0.0222888244) x6) (or (<= (+ x6 0.7426599805) x4) (or (>= (- y4 0.5933566488) y6) (or (>= (- y6 0.5725162037) y4))))) 
(and (or (<= (+ x4 0.0222888244) x7) (or (<= (+ x7 0.6211703496) x4) (or (>= (- y4 0.5933566488) y7) (or (>= (- y7 0.454072304) y4))))) 
(and (or (<= (+ x4 0.0222888244) x8) (or (<= (+ x8 0.8113019249) x4) (or (>= (- y4 0.5933566488) y8) (or (>= (- y8 0.3034125159) y4))))) 
(and (or (<= (+ x4 0.0222888244) x9) (or (<= (+ x9 0.0756056855) x4) (or (>= (- y4 0.5933566488) y9) (or (>= (- y9 0.2695778767) y4))))) 
(and (or (<= (+ x4 0.0222888244) x10) (or (<= (+ x10 0.3485524625) x4) (or (>= (- y4 0.5933566488) y10) (or (>= (- y10 0.2278110261) y4))))) 
(and (or (<= (+ x4 0.0222888244) x11) (or (<= (+ x11 0.2459740716) x4) (or (>= (- y4 0.5933566488) y11) (or (>= (- y11 0.1409893754) y4))))) 
(and (or (<= (+ x5 0.8253510345) x6) (or (<= (+ x6 0.7426599805) x5) (or (>= (- y5 0.5755878438) y6) (or (>= (- y6 0.5725162037) y5))))) 
(and (or (<= (+ x5 0.8253510345) x7) (or (<= (+ x7 0.6211703496) x5) (or (>= (- y5 0.5755878438) y7) (or (>= (- y7 0.454072304) y5))))) 
(and (or (<= (+ x5 0.8253510345) x8) (or (<= (+ x8 0.8113019249) x5) (or (>= (- y5 0.5755878438) y8) (or (>= (- y8 0.3034125159) y5))))) 
(and (or (<= (+ x5 0.8253510345) x9) (or (<= (+ x9 0.0756056855) x5) (or (>= (- y5 0.5755878438) y9) (or (>= (- y9 0.2695778767) y5))))) 
(and (or (<= (+ x5 0.8253510345) x10) (or (<= (+ x10 0.3485524625) x5) (or (>= (- y5 0.5755878438) y10) (or (>= (- y10 0.2278110261) y5))))) 
(and (or (<= (+ x5 0.8253510345) x11) (or (<= (+ x11 0.2459740716) x5) (or (>= (- y5 0.5755878438) y11) (or (>= (- y11 0.1409893754) y5))))) 
(and (or (<= (+ x6 0.7426599805) x7) (or (<= (+ x7 0.6211703496) x6) (or (>= (- y6 0.5725162037) y7) (or (>= (- y7 0.454072304) y6))))) 
(and (or (<= (+ x6 0.7426599805) x8) (or (<= (+ x8 0.8113019249) x6) (or (>= (- y6 0.5725162037) y8) (or (>= (- y8 0.3034125159) y6))))) 
(and (or (<= (+ x6 0.7426599805) x9) (or (<= (+ x9 0.0756056855) x6) (or (>= (- y6 0.5725162037) y9) (or (>= (- y9 0.2695778767) y6))))) 
(and (or (<= (+ x6 0.7426599805) x10) (or (<= (+ x10 0.3485524625) x6) (or (>= (- y6 0.5725162037) y10) (or (>= (- y10 0.2278110261) y6))))) 
(and (or (<= (+ x6 0.7426599805) x11) (or (<= (+ x11 0.2459740716) x6) (or (>= (- y6 0.5725162037) y11) (or (>= (- y11 0.1409893754) y6))))) 
(and (or (<= (+ x7 0.6211703496) x8) (or (<= (+ x8 0.8113019249) x7) (or (>= (- y7 0.454072304) y8) (or (>= (- y8 0.3034125159) y7))))) 
(and (or (<= (+ x7 0.6211703496) x9) (or (<= (+ x9 0.0756056855) x7) (or (>= (- y7 0.454072304) y9) (or (>= (- y9 0.2695778767) y7))))) 
(and (or (<= (+ x7 0.6211703496) x10) (or (<= (+ x10 0.3485524625) x7) (or (>= (- y7 0.454072304) y10) (or (>= (- y10 0.2278110261) y7))))) 
(and (or (<= (+ x7 0.6211703496) x11) (or (<= (+ x11 0.2459740716) x7) (or (>= (- y7 0.454072304) y11) (or (>= (- y11 0.1409893754) y7))))) 
(and (or (<= (+ x8 0.8113019249) x9) (or (<= (+ x9 0.0756056855) x8) (or (>= (- y8 0.3034125159) y9) (or (>= (- y9 0.2695778767) y8))))) 
(and (or (<= (+ x8 0.8113019249) x10) (or (<= (+ x10 0.3485524625) x8) (or (>= (- y8 0.3034125159) y10) (or (>= (- y10 0.2278110261) y8))))) 
(and (or (<= (+ x8 0.8113019249) x11) (or (<= (+ x11 0.2459740716) x8) (or (>= (- y8 0.3034125159) y11) (or (>= (- y11 0.1409893754) y8))))) 
(and (or (<= (+ x9 0.0756056855) x10) (or (<= (+ x10 0.3485524625) x9) (or (>= (- y9 0.2695778767) y10) (or (>= (- y10 0.2278110261) y9))))) 
(and (or (<= (+ x9 0.0756056855) x11) (or (<= (+ x11 0.2459740716) x9) (or (>= (- y9 0.2695778767) y11) (or (>= (- y11 0.1409893754) y9))))) 
(and (or (<= (+ x10 0.3485524625) x11) (or (<= (+ x11 0.2459740716) x10) (or (>= (- y10 0.2278110261) y11) (or (>= (- y11 0.1409893754) y10))))) )))))))))))))))))))))))))))))))))))))))))))))))))))))))))))))))))))))))))))))))))))))))))))))))))))))))))))))))))))))))))))))))))))))))))))))))))))))))))))
(minimize c)
(check-sat)
(get-objectives)
(exit)
